Route #1: 48 35 11 12 3 
Route #2: 75 66 10 39 72 
Route #3: 40 51 56 36 54 
Route #4: 16 55 31 14 7 
Route #5: 4 34 19 65 38 
Route #6: 63 41 47 59 67 
Route #7: 9 61 71 70 20 52 
Route #8: 30 28 22 42 73 1 
Route #9: 68 21 69 37 26 50 
Route #10: 53 57 15 74 43 32 
Route #11: 2 62 64 23 49 18 
Route #12: 27 45 6 24 25 
Route #13: 58 44 33 60 5 
Route #14: 29 13 8 46 17 
cost 1818.93
